src/asp/benchmarks/small6.lp
citta(perugia).
citta(san_giustino).
citta(gubbio).

richiesta(perugia, strade, 0).
richiesta(perugia, fiumi, 50).
richiesta(perugia, scuole, 46).
richiesta(perugia, parchi, 1).
richiesta(perugia, energia, 59).

richiesta(san_giustino, strade, 141).
richiesta(san_giustino, fiumi, 132).
richiesta(san_giustino, scuole, 32).
richiesta(san_giustino, parchi, 3).
richiesta(san_giustino, energia, 94).

richiesta(gubbio, strade, 4).
richiesta(gubbio, fiumi, 138).
richiesta(gubbio, scuole, 157).
richiesta(gubbio, parchi, 119).
richiesta(gubbio, energia, 16).

